(assert (forall ((pkt_0_4_6_0  Int  )(state_group_0_state_0_5_7_0  Int  )(state_group_0_state_1_6_8_0  Int  )) (let ((_n0 false ))
(let ((_n1 state_group_0_state_1_6_8_0 ))
(let ((_n2 (=   _n1   (ite  _n0  1 0) ) ))
(let ((_n3 999 ))
(let ((_n4 (ite (=  _n1  0)  (ite  _n0  1 0)   _n1  ) ))
(let ((_n5 (=   _n4   _n3 ) ))
(let ((_n6 (ite (=  _n1  0)  _n0   _n5  ) ))
(let ((_n7 (not  _n6 ) ))
(let ((_n8 (or   _n7   _n2 ) ))
(let ((_n9 pkt_0_4_6_0 ))
(let ((_n10 (ite  _n8   (ite  _n0  1 0)   _n9  ) ))
(let ((_n11 (ite  _n8   (ite  _n0  1 0)   _n1  ) ))
(let ((_n12 (+   _n11   _n10 ) ))
(let ((_n13 (=   _n12   (ite  _n0  1 0) ) ))
(let ((_n14 (ite  _n8   _n0   _n13  ) ))
(let ((_n15 (or   _n14   _n8 ) ))
(let ((_n17 state_group_0_state_0_5_7_0 ))
(let ((_n18 true ))
(let ((_n19 (+   _n17   (ite  _n18  1 0) ) ))
(let ((_n20 (ite (=  _n1  0)  _n19   _n17  ) ))
(let ((_n21 (not  _n14 ) ))
(let ((_n22 (or   _n21   _n8 ) ))
(let ((_n23 (ite  _n22   (ite  _n0  1 0)   _n9  ) ))
(let ((_n24 (+   _n17   _n23 ) ))
(let ((_n25 (ite (=  (ite  _n14  1 0)  1)  _n24   _n17  ) ))
(let ((_n26 (ite (=  (ite  _n6  1 0)  1)  _n25   _n17  ) ))
(let ((_n27 (ite (=  _n1  0)  _n17   (ite  _n0  1 0)  ) ))
(let ((_n28 (=   _n27   _n3 ) ))
(let ((_n29 (not  _n28 ) ))
(let ((_n30 (and   _n2   _n29 ) ))
(let ((_n31 (not  _n2 ) ))
(let ((_n32 (or   _n30   _n31 ) ))
(let ((_n33 1000 ))
(let ((_n34 (ite  _n32   (ite  _n0  1 0)   _n33  ) ))
(let ((_n35 (ite  _n32   _n17   (ite  _n0  1 0)  ) ))
(let ((_n36 (+   _n35   _n34 ) ))
(let ((_n37 (and   _n30   _n2 ) ))
(let ((_n38 (+   _n17   (ite  _n37  1 0) ) ))
(let ((_n39 (ite (=  (ite  _n30  1 0)  1)  _n38   _n36  ) ))
(let ((_n40 (ite (=  (ite  _n2  1 0)  1)  _n39   _n26  ) ))
(let ((_n41 (=   _n40   _n20 ) ))
(let ((_n43 (ite (=  _n17  999)  (ite  _n18  1 0)   _n1  ) ))
(let ((_n44 (ite (=  _n1  0)  _n43   _n1  ) ))
(let ((_n45 (not  _n32 ) ))
(let ((_n46 (+   _n1   (ite  _n45  1 0) ) ))
(let ((_n47 (ite (=  (ite  _n30  1 0)  1)  _n1   _n46  ) ))
(let ((_n48 (ite (=  (ite  _n2  1 0)  1)  _n47   _n1  ) ))
(let ((_n49 (=   _n48   _n44 ) ))
(implies  (and (and (>= state_group_0_state_1_6_8_0 0) (< state_group_0_state_1_6_8_0 1024 ))  (and (and (>= state_group_0_state_0_5_7_0 0) (< state_group_0_state_0_5_7_0 1024 ))  (and (>= pkt_0_4_6_0 0) (< pkt_0_4_6_0 1024 )) ) )   (and  _n15  _n41  _n49 )  )))))))))))))))))))))))))))))))))))))))))))))))))))
(check-sat)
(get-model)
(exit)